56
Properties=species:S:1:pos:R:3 center_atom=55 pbc="F F F"
O        2.12982613       2.44717332       0.43885912
H        2.29109342       2.35828525       1.39882816
H        1.36644969       1.84532955       0.14055574
O        1.00856682       4.69844517       0.26078994
H        1.69171349       3.94924405       0.26121736
H        0.53330570       4.51808066      -0.59367927
O       -2.08353636      -1.05347702       4.38696686
H       -2.18749239      -1.70863705       3.64828500
H       -2.29132866      -0.23511833       3.87421918
O       -0.23389903      -1.16943224       1.49442219
H       -0.80514466      -1.87624471       1.80037072
H        0.46704699      -1.72436616       1.13904514
O       -3.78625561      -1.92285042       0.01475937
H       -3.40751250      -1.11183959       0.41852885
H       -3.34599275      -1.80365449      -0.93379567
O        3.09475870       1.38367996      -1.99064477
H        3.94461890       1.11223652      -1.64254938
H        2.66100280       1.64818888      -1.10576682
O        2.64691376      -2.71578482      -2.81435133
H        3.15486094      -2.87322986      -3.63272862
H        3.05590371      -2.08121684      -2.21390350
O       -1.86737370       2.49168399       1.32637163
H       -1.01279754       1.97927310       1.43297853
H       -2.04452784       2.67499716       0.40767162
O       -3.41202699       0.00837718       1.86761280
H       -2.68951056       0.66407487       1.67253498
H       -4.05394141       0.52292730       2.43167336
O        1.63909056      -2.99663232       0.59771353
H        2.36963980      -2.59098933       0.17544357
H        1.67060800      -3.93719493       0.38900546
O        0.57142868       0.00347683      -2.13418746
H        0.08857153       0.75359010      -2.53622255
H        1.48882467       0.26610204      -2.18940630
O       -1.26459639       1.74267096      -3.22704166
H       -1.57298205       1.80662376      -4.17216661
H       -0.99933194       2.66374426      -2.87030216
O       -0.14098341      -3.15846212      -2.29968983
H       -0.73276904      -2.43898428      -2.12963619
H        0.79484537      -2.97737197      -2.34252722
O        3.69797063      -1.08274584      -0.20419431
H        4.52681863      -1.46917498      -0.06528014
H        3.75762555      -0.15601105       0.01116937
O        3.33819475       0.89449850       2.52141425
H        2.40111453       0.63539748       2.59329897
H        3.79497699       0.07853094       2.57996428
O        0.44663652       1.11201784       2.32783797
H        0.15666600       0.24872662       2.02657659
H       -0.08713249       1.38037652       3.07473648
O       -2.41853647      -2.81945778       2.21422800
H       -2.84433438      -2.51039354       1.42340170
H       -1.99143326      -3.72085627       2.10949317
O       -2.45674035      -0.95652844      -2.27173625
H       -1.85820102      -0.21735162      -2.17313566
H       -3.05207304      -0.68589313      -3.03365251
O       -0.17752813       0.93727758      -0.37895698
H        0.00000000       0.00000000       0.00000000
