11
Properties=species:S:1:pos:R:3 center_atom=10 pbc="F F F"
O       -0.23389903      -1.16943224       1.49442219
H       -0.80514466      -1.87624471       1.80037072
H        0.46704699      -1.72436616       1.13904514
O        0.57142868       0.00347683      -2.13418746
H        0.08857153       0.75359010      -2.53622255
H        1.48882467       0.26610204      -2.18940630
O        0.44663652       1.11201784       2.32783797
H        0.15666600       0.24872662       2.02657659
H       -0.08713249       1.38037652       3.07473648
O       -0.17752813       0.93727758      -0.37895698
H        0.00000000       0.00000000       0.00000000
