17
Properties=species:S:1:pos:R:3 center_atom=15 pbc="F F F"
O        2.30735426       1.50989574       0.81781610
H        2.46862155       1.42100767       1.77778514
H        1.54397782       0.90805197       0.51951272
O       -1.68984557       1.55440641       1.70532861
H       -0.83526941       1.04199552       1.81193551
H       -1.86699971       1.73771958       0.78662860
O        0.74895681      -0.93380075      -1.75523048
H        0.26609966      -0.18368748      -2.15726557
H        1.66635280      -0.67117554      -1.81044932
O        0.62416465       0.17474026       2.70679495
H        0.33419413      -0.68855096       2.40553357
H        0.09039564       0.44309894       3.45369346
O       -2.27921222      -1.89380602      -1.89277927
H       -1.68067289      -1.15462920      -1.79417868
H       -2.87454491      -1.62317071      -2.65469553
O        0.00000000       0.00000000       0.00000000
H        0.17752813      -0.93727758       0.37895698
