68
Properties=species:S:1:pos:R:3 center_atom=66 pbc="F F F"
O       -0.01801930       3.66144026      -1.96104722
H        0.76197403       3.32265925      -2.42754065
H       -0.15368120       4.55361329      -2.09096709
O        2.30735426       1.50989574       0.81781610
H        2.46862155       1.42100767       1.77778514
H        1.54397782       0.90805197       0.51951272
O        1.18609495       3.76116759       0.63974692
H        1.86924162       3.01196647       0.64017434
H        0.71083383       3.58080308      -0.21472229
O       -0.99416111       4.34289271       2.40413285
H       -0.26898506       4.36860919       1.74394284
H       -1.35880371       3.45795535       2.24204478
O       -0.05637090      -2.10670982       1.87337917
H       -0.62761653      -2.81352229       2.17932770
H        0.64457512      -2.66164374       1.51800212
O       -3.60872748      -2.86012800       0.39371635
H       -3.22998437      -2.04911717       0.79748583
H       -3.16846462      -2.74093207      -0.55483869
O        3.27228683       0.44640238      -1.61168779
H        4.12214703       0.17495894      -1.26359240
H        2.83853093       0.71091130      -0.72680984
O       -1.68984557       1.55440641       1.70532861
H       -0.83526941       1.04199552       1.81193551
H       -1.86699971       1.73771958       0.78662860
O       -3.23449886      -0.92890040       2.24656978
H       -2.51198243      -0.27320271       2.05149196
H       -3.87641328      -0.41435028       2.81063034
O        2.08830904       2.64913587       3.68472085
H        1.35438472       3.26817184       3.63602365
H        1.73706284       1.84022640       4.06636350
O        1.81661869      -3.93390990       0.97667051
H        2.54716793      -3.52826691       0.55440055
H        1.84813613      -4.87447251       0.76796244
O        0.74895681      -0.93380075      -1.75523048
H        0.26609966      -0.18368748      -2.15726557
H        1.66635280      -0.67117554      -1.81044932
O        1.59852400       0.55509841      -4.76283141
H        1.50499735       1.10281831      -3.97765843
H        1.35045525      -0.38114783      -4.55879716
O       -4.77030811       0.90354381       0.13514890
H       -4.99405354       1.46504516       0.94167677
H       -3.93358297       0.45236108       0.31341740
O       -1.08706826       0.80539338      -2.84808468
H       -1.39545392       0.86934618      -3.79320963
H       -0.82180381       1.72646668      -2.49134518
O        0.03654472      -4.09573970      -1.92073285
H       -0.55524091      -3.37626186      -1.75067921
H        0.97237350      -3.91464955      -1.96357024
O        3.87549876      -2.02002342       0.17476267
H        4.70434676      -2.40645256       0.31367684
H        3.93515368      -1.09328863       0.39012635
O        3.51572288      -0.04277908       2.90037123
H        2.57864266      -0.30188010       2.97225595
H        3.97250512      -0.85874664       2.95892126
O        0.62416465       0.17474026       2.70679495
H        0.33419413      -0.68855096       2.40553357
H        0.09039564       0.44309894       3.45369346
O        2.68939465       2.76176257      -2.95378289
H        2.86588486       2.12792106      -2.28516114
H        3.17109400       2.72922139      -3.81703690
O       -2.24100834      -3.75673536       2.59318498
H       -2.66680625      -3.44767112       1.80235868
H       -1.81390513      -4.65813385       2.48845015
O       -2.27921222      -1.89380602      -1.89277927
H       -1.68067289      -1.15462920      -1.79417868
H       -2.87454491      -1.62317071      -2.65469553
O        0.00000000       0.00000000       0.00000000
H        0.17752813      -0.93727758       0.37895698
