35
Properties=species:S:1:pos:R:3 center_atom=33 pbc="F F F"
O       -0.01801930       3.66144026      -1.96104722
H        0.76197403       3.32265925      -2.42754065
H       -0.15368120       4.55361329      -2.09096709
O        2.30735426       1.50989574       0.81781610
H        2.46862155       1.42100767       1.77778514
H        1.54397782       0.90805197       0.51951272
O        1.18609495       3.76116759       0.63974692
H        1.86924162       3.01196647       0.64017434
H        0.71083383       3.58080308      -0.21472229
O       -0.05637090      -2.10670982       1.87337917
H       -0.62761653      -2.81352229       2.17932770
H        0.64457512      -2.66164374       1.51800212
O        3.27228683       0.44640238      -1.61168779
H        4.12214703       0.17495894      -1.26359240
H        2.83853093       0.71091130      -0.72680984
O       -1.68984557       1.55440641       1.70532861
H       -0.83526941       1.04199552       1.81193551
H       -1.86699971       1.73771958       0.78662860
O       -3.23449886      -0.92890040       2.24656978
H       -2.51198243      -0.27320271       2.05149196
H       -3.87641328      -0.41435028       2.81063034
O        0.74895681      -0.93380075      -1.75523048
H        0.26609966      -0.18368748      -2.15726557
H        1.66635280      -0.67117554      -1.81044932
O       -1.08706826       0.80539338      -2.84808468
H       -1.39545392       0.86934618      -3.79320963
H       -0.82180381       1.72646668      -2.49134518
O        0.62416465       0.17474026       2.70679495
H        0.33419413      -0.68855096       2.40553357
H        0.09039564       0.44309894       3.45369346
O       -2.27921222      -1.89380602      -1.89277927
H       -1.68067289      -1.15462920      -1.79417868
H       -2.87454491      -1.62317071      -2.65469553
O        0.00000000       0.00000000       0.00000000
H        0.17752813      -0.93727758       0.37895698
